nNurses = 100;
nHours = 39;
minHours = 3;
maxHours = 19;
maxConsec = 18;
maxPresence = 28;
demand = [8, 7, 8, 13, 11, 15, 19, 23, 24, 22, 18, 14, 12, 12, 17, 14, 17, 12, 16, 13, 18, 18, 18, 18, 22, 25, 26, 28, 24, 27, 22, 27, 32, 32, 29, 25, 28, 24, 24];
